(set-logic QF_S)
(declare-fun var0 () String)
(declare-fun var1 () Int)
(declare-fun var2 () Int)
(declare-fun var3 () String)
(declare-fun var4 () Int)
(declare-fun var5 () String)
(declare-fun var6 () String)
(declare-fun var7 () Int)
(assert (str.prefixof (str.substr var0 var1 var2) (str.at var3 var4)))
(assert (not (str.suffixof var5 var6)))
(assert (str.contains (str.at var0 var7) (str.at (str.at var5 var2) (str.indexof var0 var0 var1))))
(assert (str.in.re (str.substr var3 var1 var7) (re.* re.allchar)))
(check-sat)